WARNING: for repeatability, setting FPU to use double precision
============================[ Problem Statistics ]=============================
|                                                                             |
|  Number of variables:            50                                         |
|  Number of clauses:             218                                         |
|  Parse time:                   0.00 s                                       |
|                                                                             |
============================[ Search Statistics ]==============================
| Conflicts |          ORIGINAL         |          LEARNT          | Progress |
|           |    Vars  Clauses Literals |    Limit  Clauses Lit/Cl |          |
===============================================================================
===============================================================================
restarts              : 1
conflicts             : 51             (35124 /sec)
decisions             : 54             (0.00 % random) (37190 /sec)
propagations          : 609            (419421 /sec)
conflict literals     : 167            (18.93 % deleted)
Memory used           : 20.00 MB
CPU time              : 0.001452 s

UNSATISFIABLE
